p cnf 155 409
c expr (((~ (((((x1@1 & x2@1) | (x1@2 & x2@2)) | (x1@3 & x2@3)) | (x1@4 & x2@4)) & (~ ((((x1@1 <-> x2@1) & (x1@2 <-> x2@2)) & (x1@3 <-> x2@3)) & (x1@4 <-> x2@4))))) & (~ (((((x1@1 & x3@1) | (x1@2 & x3@2)) | (x1@3 & x3@3)) | (x1@4 & x3@4)) & (~ ((((x1@1 <-> x3@1) & (x1@2 <-> x3@2)) & (x1@3 <-> x3@3)) & (x1@4 <-> x3@4)))))) & (~ (((((x2@1 & x3@1) | (x2@2 & x3@2)) | (x2@3 & x3@3)) | (x2@4 & x3@4)) & (~ ((((x2@1 <-> x3@1) & (x2@2 <-> x3@2)) & (x2@3 <-> x3@3)) & (x2@4 <-> x3@4))))))
c expr ((((((((~ x3@1) & x3@2) & x3@3) & (~ x3@4)) | ((((~ x3@1) & x3@2) & (~ x3@3)) & (~ x3@4))) | (((x3@1 & x3@2) & x3@3) & x3@4)) | (((x3@1 & (~ x3@2)) & (~ x3@3)) & x3@4)) | (((x3@1 & (~ x3@2)) & (~ x3@3)) & (~ x3@4)))
c expr ((((((((~ x1@1) & x1@2) & x1@3) & (~ x1@4)) | ((((~ x1@1) & x1@2) & (~ x1@3)) & (~ x1@4))) | (((x1@1 & x1@2) & x1@3) & x1@4)) | (((x1@1 & (~ x1@2)) & (~ x1@3)) & x1@4)) | (((x1@1 & (~ x1@2)) & (~ x1@3)) & (~ x1@4)))
c expr ((((((((~ x2@1) & x2@2) & x2@3) & (~ x2@4)) | ((((~ x2@1) & x2@2) & (~ x2@3)) & (~ x2@4))) | (((x2@1 & x2@2) & x2@3) & x2@4)) | (((x2@1 & (~ x2@2)) & (~ x2@3)) & x2@4)) | (((x2@1 & (~ x2@2)) & (~ x2@3)) & (~ x2@4)))
c dom V1: 2 3
c dom V2: 2
c dom V3: 1 2 3 4
c dom V4: 1 4
c dom V5: 1
c enc 2 x1@1
c enc 4 x2@1
c enc 7 x1@2
c enc 9 x2@2
c enc 13 x1@3
c enc 15 x2@3
c enc 19 x1@4
c enc 21 x2@4
c enc 41 x3@1
c enc 44 x3@2
c enc 48 x3@3
c enc 52 x3@4
-1 -2 0
1 2 0
-3 -4 0
3 4 0
5 -3 0
5 -1 0
-5 1 3 0
-6 -7 0
6 7 0
-8 -9 0
8 9 0
10 -8 0
10 -6 0
-10 6 8 0
-11 5 0
-11 10 0
11 -5 -10 0
-12 -13 0
12 13 0
-14 -15 0
14 15 0
16 -14 0
16 -12 0
-16 12 14 0
-17 11 0
-17 16 0
17 -11 -16 0
-18 -19 0
18 19 0
-20 -21 0
20 21 0
22 -20 0
22 -18 0
-22 18 20 0
-23 17 0
-23 22 0
23 -17 -22 0
24 -4 0
24 -1 0
-24 1 4 0
25 -2 0
25 -3 0
-25 3 2 0
-26 24 0
-26 25 0
26 -24 -25 0
27 -9 0
27 -6 0
-27 6 9 0
28 -7 0
28 -8 0
-28 8 7 0
-29 27 0
-29 28 0
29 -27 -28 0
-30 26 0
-30 29 0
30 -26 -29 0
31 -15 0
31 -12 0
-31 12 15 0
32 -13 0
32 -14 0
-32 14 13 0
-33 31 0
-33 32 0
33 -31 -32 0
-34 30 0
-34 33 0
34 -30 -33 0
35 -21 0
35 -18 0
-35 18 21 0
36 -19 0
36 -20 0
-36 20 19 0
-37 35 0
-37 36 0
37 -35 -36 0
-38 34 0
-38 37 0
38 -34 -37 0
39 -38 0
39 -23 0
-39 23 38 0
-40 -41 0
40 41 0
42 -40 0
42 -1 0
-42 1 40 0
-43 -44 0
43 44 0
45 -43 0
45 -6 0
-45 6 43 0
-46 42 0
-46 45 0
46 -42 -45 0
-47 -48 0
47 48 0
49 -47 0
49 -12 0
-49 12 47 0
-50 46 0
-50 49 0
50 -46 -49 0
-51 -52 0
51 52 0
53 -51 0
53 -18 0
-53 18 51 0
-54 50 0
-54 53 0
54 -50 -53 0
55 -41 0
55 -1 0
-55 1 41 0
56 -2 0
56 -40 0
-56 40 2 0
-57 55 0
-57 56 0
57 -55 -56 0
58 -44 0
58 -6 0
-58 6 44 0
59 -7 0
59 -43 0
-59 43 7 0
-60 58 0
-60 59 0
60 -58 -59 0
-61 57 0
-61 60 0
61 -57 -60 0
62 -48 0
62 -12 0
-62 12 48 0
63 -13 0
63 -47 0
-63 47 13 0
-64 62 0
-64 63 0
64 -62 -63 0
-65 61 0
-65 64 0
65 -61 -64 0
66 -52 0
66 -18 0
-66 18 52 0
67 -19 0
67 -51 0
-67 51 19 0
-68 66 0
-68 67 0
68 -66 -67 0
-69 65 0
-69 68 0
69 -65 -68 0
70 -69 0
70 -54 0
-70 54 69 0
-71 39 0
-71 70 0
71 -39 -70 0
72 -40 0
72 -3 0
-72 3 40 0
73 -43 0
73 -8 0
-73 8 43 0
-74 72 0
-74 73 0
74 -72 -73 0
75 -47 0
75 -14 0
-75 14 47 0
-76 74 0
-76 75 0
76 -74 -75 0
77 -51 0
77 -20 0
-77 20 51 0
-78 76 0
-78 77 0
78 -76 -77 0
79 -41 0
79 -3 0
-79 3 41 0
80 -4 0
80 -40 0
-80 40 4 0
-81 79 0
-81 80 0
81 -79 -80 0
82 -44 0
82 -8 0
-82 8 44 0
83 -9 0
83 -43 0
-83 43 9 0
-84 82 0
-84 83 0
84 -82 -83 0
-85 81 0
-85 84 0
85 -81 -84 0
86 -48 0
86 -14 0
-86 14 48 0
87 -15 0
87 -47 0
-87 47 15 0
-88 86 0
-88 87 0
88 -86 -87 0
-89 85 0
-89 88 0
89 -85 -88 0
90 -52 0
90 -20 0
-90 20 52 0
91 -21 0
91 -51 0
-91 51 21 0
-92 90 0
-92 91 0
92 -90 -91 0
-93 89 0
-93 92 0
93 -89 -92 0
94 -93 0
94 -78 0
-94 78 93 0
-95 71 0
-95 94 0
95 -71 -94 0
95 0
-96 -41 0
96 41 0
-97 96 0
-97 44 0
97 -96 -44 0
-98 97 0
-98 48 0
98 -97 -48 0
-99 -52 0
99 52 0
-100 98 0
-100 99 0
100 -98 -99 0
-101 -48 0
101 48 0
-102 97 0
-102 101 0
102 -97 -101 0
-103 102 0
-103 99 0
103 -102 -99 0
104 -103 0
104 -100 0
-104 100 103 0
-105 41 0
-105 44 0
105 -41 -44 0
-106 105 0
-106 48 0
106 -105 -48 0
-107 106 0
-107 52 0
107 -106 -52 0
108 -107 0
108 -104 0
-108 104 107 0
-109 -44 0
109 44 0
-110 41 0
-110 109 0
110 -41 -109 0
-111 110 0
-111 101 0
111 -110 -101 0
-112 111 0
-112 52 0
112 -111 -52 0
113 -112 0
113 -108 0
-113 108 112 0
-114 111 0
-114 99 0
114 -111 -99 0
115 -114 0
115 -113 0
-115 113 114 0
115 0
-116 -2 0
116 2 0
-117 116 0
-117 7 0
117 -116 -7 0
-118 117 0
-118 13 0
118 -117 -13 0
-119 -19 0
119 19 0
-120 118 0
-120 119 0
120 -118 -119 0
-121 -13 0
121 13 0
-122 117 0
-122 121 0
122 -117 -121 0
-123 122 0
-123 119 0
123 -122 -119 0
124 -123 0
124 -120 0
-124 120 123 0
-125 2 0
-125 7 0
125 -2 -7 0
-126 125 0
-126 13 0
126 -125 -13 0
-127 126 0
-127 19 0
127 -126 -19 0
128 -127 0
128 -124 0
-128 124 127 0
-129 -7 0
129 7 0
-130 2 0
-130 129 0
130 -2 -129 0
-131 130 0
-131 121 0
131 -130 -121 0
-132 131 0
-132 19 0
132 -131 -19 0
133 -132 0
133 -128 0
-133 128 132 0
-134 131 0
-134 119 0
134 -131 -119 0
135 -134 0
135 -133 0
-135 133 134 0
135 0
-136 -4 0
136 4 0
-137 136 0
-137 9 0
137 -136 -9 0
-138 137 0
-138 15 0
138 -137 -15 0
-139 -21 0
139 21 0
-140 138 0
-140 139 0
140 -138 -139 0
-141 -15 0
141 15 0
-142 137 0
-142 141 0
142 -137 -141 0
-143 142 0
-143 139 0
143 -142 -139 0
144 -143 0
144 -140 0
-144 140 143 0
-145 4 0
-145 9 0
145 -4 -9 0
-146 145 0
-146 15 0
146 -145 -15 0
-147 146 0
-147 21 0
147 -146 -21 0
148 -147 0
148 -144 0
-148 144 147 0
-149 -9 0
149 9 0
-150 4 0
-150 149 0
150 -4 -149 0
-151 150 0
-151 141 0
151 -150 -141 0
-152 151 0
-152 21 0
152 -151 -21 0
153 -152 0
153 -148 0
-153 148 152 0
-154 151 0
-154 139 0
154 -151 -139 0
155 -154 0
155 -153 0
-155 153 154 0
155 0
